NAME : XML100_1363_17
DIMENSION : 101
NB_CLUSTERS : 4
CLUSTERING_ALG : DBSCAN
CLUSTERING_PARAMS : eps(117), minSamples(3)
CLUSTERS
1 0
2 1 2 3 4 6 7 8 9 11 12 13 14 15 17 19 20 22 23 24 26 27 29 30 31 32 34 36 37 38 40 41 44 46 47 48 49 50 51 52 53 54 55 56 58 59 60 61 63 64 65 66 67 68 69 71 74 76 78 80 81 84 85 86 88 89 91 94 98 100
3 10 16 21 33 39 42 57 70 72 75 77 79 82 83 87 90 93 95 96 99
4 5 18 25 28 35 43 45 62 73 92 97
EOF